
Gurobi 9.1.2 (win64, Java) logging started Tue Nov  2 19:39:37 2021

Academic license - for non-commercial use only - expires 2021-11-24
Gurobi Optimizer version 9.1.2 build v9.1.2rc0 (win64)
Thread count: 6 physical cores, 12 logical processors, using up to 12 threads
Optimize a model with 138 rows, 3195 columns and 44445 nonzeros
Model fingerprint: 0x910e1d4b
Variable types: 29 continuous, 3166 integer (3166 binary)
Coefficient statistics:
  Matrix range     [1e+00, 1e+07]
  Objective range  [1e+00, 1e+00]
  Bounds range     [1e+00, 1e+00]
  RHS range        [1e+00, 1e+00]
Found heuristic solution: objective 2.000000e+09
Presolve removed 22 rows and 2794 columns
Presolve time: 0.01s
Presolved: 116 rows, 401 columns, 2855 nonzeros
Found heuristic solution: objective 6.6760230
Variable types: 1 continuous, 400 integer (400 binary)

Root relaxation: objective 8.999993e-01, 113 iterations, 0.00 seconds

    Nodes    |    Current Node    |     Objective Bounds      |     Work
 Expl Unexpl |  Obj  Depth IntInf | Incumbent    BestBd   Gap | It/Node Time

     0     0    0.90000    0    6    6.67602    0.90000  86.5%     -    0s
H    0     0                       0.9057811    0.90000  0.64%     -    0s
     0     0    0.90000    0    6    0.90578    0.90000  0.64%     -    0s
     0     0    0.90000    0    3    0.90578    0.90000  0.64%     -    0s
H    0     0                       0.9022473    0.90000  0.25%     -    0s
H    0     0                       0.9003590    0.90000  0.04%     -    0s
     0     0    0.90000    0    3    0.90036    0.90000  0.04%     -    0s
H    0     0                       0.9003576    0.90000  0.04%     -    0s
     0     0    0.90000    0    1    0.90036    0.90000  0.04%     -    0s
     0     0    0.90000    0    3    0.90036    0.90000  0.04%     -    0s
     0     0    0.90000    0    3    0.90036    0.90000  0.04%     -    0s
     0     0    0.90000    0    3    0.90036    0.90000  0.04%     -    0s
     0     0    0.90000    0    5    0.90036    0.90000  0.04%     -    0s
     0     0    0.90000    0    6    0.90036    0.90000  0.04%     -    0s
     0     0    0.90000    0    6    0.90036    0.90000  0.04%     -    0s
     0     0    0.90000    0    1    0.90036    0.90000  0.04%     -    0s
H    0     0                       0.9003172    0.90000  0.04%     -    0s
H    0     0                       0.9001777    0.90000  0.02%     -    0s
     0     0    0.90000    0    3    0.90018    0.90000  0.02%     -    0s
     0     0    0.90000    0    4    0.90018    0.90000  0.02%     -    0s
     0     0    0.90000    0    1    0.90018    0.90000  0.02%     -    0s
     0     0    0.90000    0    4    0.90018    0.90000  0.02%     -    0s
     0     0    0.90000    0    4    0.90018    0.90000  0.02%     -    0s
     0     0    0.90000    0    4    0.90018    0.90000  0.02%     -    0s
     0     2    0.90000    0    4    0.90018    0.90000  0.02%     -    0s
H    8    14                       0.9000308    0.90000  0.00%   2.5    0s

Cutting planes:
  Gomory: 1
  Cover: 3
  MIR: 1
  StrongCG: 4
  GUB cover: 1

Explored 13 nodes (310 simplex iterations) in 0.11 seconds
Thread count was 12 (of 12 available processors)

Solution count 10: 0.900031 0.900178 0.900317 ... 2e+09

Optimal solution found (tolerance 1.00e-04)
Best objective 9.000308441037e-01, best bound 8.999993469489e-01, gap 0.0035%

Gurobi 9.1.2 (win64, Java) logging started Tue Nov  2 19:41:33 2021

Academic license - for non-commercial use only - expires 2021-11-24
Gurobi Optimizer version 9.1.2 build v9.1.2rc0 (win64)
Thread count: 6 physical cores, 12 logical processors, using up to 12 threads
Optimize a model with 138 rows, 3167 columns and 44445 nonzeros
Model fingerprint: 0x458d12fe
Variable types: 1 continuous, 3166 integer (3166 binary)
Coefficient statistics:
  Matrix range     [1e+00, 1e+07]
  Objective range  [1e+00, 1e+00]
  Bounds range     [1e+00, 1e+00]
  RHS range        [1e+00, 1e+00]
Found heuristic solution: objective 2.000000e+09
Presolve removed 22 rows and 2766 columns
Presolve time: 0.01s
Presolved: 116 rows, 401 columns, 2855 nonzeros
Found heuristic solution: objective 6.6760230
Variable types: 1 continuous, 400 integer (400 binary)

Root relaxation: objective 8.999993e-01, 113 iterations, 0.00 seconds

    Nodes    |    Current Node    |     Objective Bounds      |     Work
 Expl Unexpl |  Obj  Depth IntInf | Incumbent    BestBd   Gap | It/Node Time

     0     0    0.90000    0    6    6.67602    0.90000  86.5%     -    0s
H    0     0                       0.9057811    0.90000  0.64%     -    0s
     0     0    0.90000    0    6    0.90578    0.90000  0.64%     -    0s
     0     0    0.90000    0    3    0.90578    0.90000  0.64%     -    0s
H    0     0                       0.9022473    0.90000  0.25%     -    0s
H    0     0                       0.9003590    0.90000  0.04%     -    0s
     0     0    0.90000    0    3    0.90036    0.90000  0.04%     -    0s
H    0     0                       0.9003576    0.90000  0.04%     -    0s
     0     0    0.90000    0    1    0.90036    0.90000  0.04%     -    0s
     0     0    0.90000    0    3    0.90036    0.90000  0.04%     -    0s
     0     0    0.90000    0    3    0.90036    0.90000  0.04%     -    0s
     0     0    0.90000    0    3    0.90036    0.90000  0.04%     -    0s
     0     0    0.90000    0    5    0.90036    0.90000  0.04%     -    0s
     0     0    0.90000    0    6    0.90036    0.90000  0.04%     -    0s
     0     0    0.90000    0    6    0.90036    0.90000  0.04%     -    0s
     0     0    0.90000    0    1    0.90036    0.90000  0.04%     -    0s
H    0     0                       0.9003172    0.90000  0.04%     -    0s
H    0     0                       0.9001777    0.90000  0.02%     -    0s
     0     0    0.90000    0    3    0.90018    0.90000  0.02%     -    0s
     0     0    0.90000    0    4    0.90018    0.90000  0.02%     -    0s
     0     0    0.90000    0    1    0.90018    0.90000  0.02%     -    0s
     0     0    0.90000    0    4    0.90018    0.90000  0.02%     -    0s
     0     0    0.90000    0    4    0.90018    0.90000  0.02%     -    0s
     0     0    0.90000    0    4    0.90018    0.90000  0.02%     -    0s
     0     2    0.90000    0    4    0.90018    0.90000  0.02%     -    0s
H    8    14                       0.9000308    0.90000  0.00%   2.5    0s

Cutting planes:
  Gomory: 1
  Cover: 3
  MIR: 1
  StrongCG: 4
  GUB cover: 1

Explored 13 nodes (310 simplex iterations) in 0.11 seconds
Thread count was 12 (of 12 available processors)

Solution count 10: 0.900031 0.900178 0.900317 ... 2e+09

Optimal solution found (tolerance 1.00e-04)
Best objective 9.000308441037e-01, best bound 8.999993469489e-01, gap 0.0035%
